************************************************************************
file with basedata            : n/a
initial value random generator: n/a
************************************************************************
projects                      :  1
jobs (incl. supersource/sink ):  32
horizon                       :  174
RESOURCES
  - renewable                 :  4   R
  - nonrenewable              :  0   N
  - doubly constrained        :  0   D
************************************************************************
PROJECT INFORMATION:
pronr.  #jobs rel.date duedate tardcost  MPM-Time
    1     30      0       54        5       54
************************************************************************
PRECEDENCE RELATIONS:
jobnr.    #modes  #successors   successors
   1        1          3           2   3   4
   2        1          3           5  12  16
   3        1          1           8
   4        1          3           6  13  22
   5        1          3           7  10  23
   6        1          3           9  14  21
   7        1          3          11  13  17
   8        1          3           9  14  16
   9        1          1          24
  10        1          2          19  25
  11        1          2          29  31
  12        1          1          23
  13        1          1          21
  14        1          3          15  20  26
  15        1          3          25  27  28
  16        1          2          26  31
  17        1          3          18  20  28
  18        1          3          21  27  30
  19        1          1          22
  20        1          2          24  30
  21        1          2          25  29
  22        1          1          24
  23        1          1          26
  24        1          1          27
  25        1          1          31
  26        1          1          28
  27        1          1          29
  28        1          1          30
  29        1          1          32
  30        1          1          32
  31        1          1          32
  32        1          0        
************************************************************************
REQUESTS/DURATIONS:
jobnr. mode duration  R 1  R 2  R 3  R 4
------------------------------------------------------------------------
  1      1     0    
  2      1    10       1   1   0   0   0   1   1   1   0   1
                       2   2   0   0   0   2   2   2   0   2
                       5   5   0   0   0   5   5   5   0   5
                       3   3   0   0   0   3   3   3   0   3
  3      1     9       3   3   0   3   3   3   3   3   3
                      10  10   0  10  10  10  10  10  10
                       6   6   0   6   6   6   6   6   6
                      10  10   0  10  10  10  10  10  10
  4      1     6       2   2   0   2   0   2
                       2   2   0   2   0   2
                       4   4   0   4   0   4
                       7   7   0   7   0   7
  5      1     1       0
                       0
                       0
                       0
  6      1     1       9
                       7
                       5
                       4
  7      1    10       3   3   0   3   3   3   3   3   3   3
                       3   3   0   3   3   3   3   3   3   3
                      10  10   0  10  10  10  10  10  10  10
                       5   5   0   5   5   5   5   5   5   5
  8      1     7       8   8   8   8   8   8   8
                       5   5   5   5   5   5   5
                      10  10  10  10  10  10  10
                       6   6   6   6   6   6   6
  9      1     5       4   4   4   4   4
                       7   7   7   7   7
                       1   1   1   1   1
                       7   7   7   7   7
 10      1     4       6   0   6   6
                       3   0   3   3
                       9   0   9   9
                       5   0   5   5
 11      1     9       8   8   8   8   0   8   8   8   8
                       2   2   2   2   0   2   2   2   2
                       8   8   8   8   0   8   8   8   8
                       4   4   4   4   0   4   4   4   4
 12      1    10       9   9   9   9   0   9   9   0   0   9
                       5   5   5   5   0   5   5   0   0   5
                       3   3   3   3   0   3   3   0   0   3
                       1   1   1   1   0   1   1   0   0   1
 13      1     6       7   7   0   0   7   7
                       9   9   0   0   9   9
                       6   6   0   0   6   6
                       9   9   0   0   9   9
 14      1     4       9   9   9   9
                       9   9   9   9
                       3   3   3   3
                       8   8   8   8
 15      1     7       0   5   5   5   0   5   0
                       0  10  10  10   0  10   0
                       0   1   1   1   0   1   0
                       0   5   5   5   0   5   0
 16      1     7       0   0   0   0  10  10  10
                       0   0   0   0   2   2   2
                       0   0   0   0   9   9   9
                       0   0   0   0   3   3   3
 17      1     8       7   7   7   7   7   0   7   7
                       4   4   4   4   4   0   4   4
                       8   8   8   8   8   0   8   8
                       8   8   8   8   8   0   8   8
 18      1     1       0
                       0
                       0
                       0
 19      1     4       1   0   1   0
                       2   0   2   0
                      10   0  10   0
                      10   0  10   0
 20      1     4      10  10  10  10
                       9   9   9   9
                       9   9   9   9
                       4   4   4   4
 21      1     7       3   3   3   3   3   3   3
                       1   1   1   1   1   1   1
                       8   8   8   8   8   8   8
                       1   1   1   1   1   1   1
 22      1     2       2   0
                       3   0
                       3   0
                       3   0
 23      1     1       3
                       5
                       6
                      10
 24      1     9       5   5   5   5   5   5   0   5   5
                      10  10  10  10  10  10   0  10  10
                       1   1   1   1   1   1   0   1   1
                       7   7   7   7   7   7   0   7   7
 25      1    10       5   5   5   5   5   5   5   5   5   5
                      10  10  10  10  10  10  10  10  10  10
                       6   6   6   6   6   6   6   6   6   6
                       7   7   7   7   7   7   7   7   7   7
 26      1     9       7   7   7   7   7   0   7   7   7
                       4   4   4   4   4   0   4   4   4
                       3   3   3   3   3   0   3   3   3
                       8   8   8   8   8   0   8   8   8
 27      1    10      10   0   0  10   0  10  10  10  10  10
                       9   0   0   9   0   9   9   9   9   9
                       1   0   0   1   0   1   1   1   1   1
                      10   0   0  10   0  10  10  10  10  10
 28      1     7       0   8   8   8   8   8   8
                       0   6   6   6   6   6   6
                       0  10  10  10  10  10  10
                       0   4   4   4   4   4   4
 29      1     2       3   3
                       6   6
                       2   2
                       9   9
 30      1     1       9
                       9
                       9
                       2
 31      1     3       0   2   2
                       0   7   7
                       0   9   9
                       0   6   6
 32      1     0    
************************************************************************
RESOURCEAVAILABILITIES:
  R 1  R 2  R 3  R 4

  37  37  37  37   0   0   0  37  37  37  37   0  37  37  37  37   0  37  37  37  37  37  37  37  37  37  37  37  37   0  37  37  37  37  37  37  37  37  37  37  37  37  37  37  37  37  37  37  37  37  37  37   0  37  37  37  37   0  37  37  37  37  37  37   0  37   0  37  37  37  37   0   0  37  37  37  37  37  37  37   0   0  37  37   0  37  37   0  37   0   0   0  37   0  37  37  37  37  37  37   0   0  37  37  37  37  37  37  37  37  37  37  37  37  37   0  37  37   0  37  37   0  37   0   0  37  37  37  37  37  37  37  37   0   0   0   0  37  37   0   0  37  37  37  37  37   0  37   0  37  37  37   0   0  37  37   0  37  37   0  37  37  37  37  37  37   0  37  37   0  37  37  37  37

  30  30  30  30   0   0   0  30  30  30  30   0  30  30  30  30   0  30  30  30  30  30  30  30  30  30  30  30  30   0  30  30  30  30  30  30  30  30  30  30  30  30  30  30  30  30  30  30  30  30  30  30   0  30  30  30  30   0  30  30  30  30  30  30   0  30   0  30  30  30  30   0   0  30  30  30  30  30  30  30   0   0  30  30   0  30  30   0  30   0   0   0  30   0  30  30  30  30  30  30   0   0  30  30  30  30  30  30  30  30  30  30  30  30  30   0  30  30   0  30  30   0  30   0   0  30  30  30  30  30  30  30  30   0   0   0   0  30  30   0   0  30  30  30  30  30   0  30   0  30  30  30   0   0  30  30   0  30  30   0  30  30  30  30  30  30   0  30  30   0  30  30  30  30

  36  36  36  36   0   0   0  36  36  36  36   0  36  36  36  36   0  36  36  36  36  36  36  36  36  36  36  36  36   0  36  36  36  36  36  36  36  36  36  36  36  36  36  36  36  36  36  36  36  36  36  36   0  36  36  36  36   0  36  36  36  36  36  36   0  36   0  36  36  36  36   0   0  36  36  36  36  36  36  36   0   0  36  36   0  36  36   0  36   0   0   0  36   0  36  36  36  36  36  36   0   0  36  36  36  36  36  36  36  36  36  36  36  36  36   0  36  36   0  36  36   0  36   0   0  36  36  36  36  36  36  36  36   0   0   0   0  36  36   0   0  36  36  36  36  36   0  36   0  36  36  36   0   0  36  36   0  36  36   0  36  36  36  36  36  36   0  36  36   0  36  36  36  36

  34  34  34  34   0   0   0  34  34  34  34   0  34  34  34  34   0  34  34  34  34  34  34  34  34  34  34  34  34   0  34  34  34  34  34  34  34  34  34  34  34  34  34  34  34  34  34  34  34  34  34  34   0  34  34  34  34   0  34  34  34  34  34  34   0  34   0  34  34  34  34   0   0  34  34  34  34  34  34  34   0   0  34  34   0  34  34   0  34   0   0   0  34   0  34  34  34  34  34  34   0   0  34  34  34  34  34  34  34  34  34  34  34  34  34   0  34  34   0  34  34   0  34   0   0  34  34  34  34  34  34  34  34   0   0   0   0  34  34   0   0  34  34  34  34  34   0  34   0  34  34  34   0   0  34  34   0  34  34   0  34  34  34  34  34  34   0  34  34   0  34  34  34  34

************************************************************************
